p cnf 324 612
-7 -199 -79 0 
-79 -200 -86 0 
-86 -201 -93 0 
-7 -202 -79 0 
-79 -203 -86 0 
-86 -204 -93 0 
-7 -205 -79 0 
-79 -206 -86 0 
-86 -207 -93 0 
-7 -208 -79 0 
-79 -209 -86 0 
-86 -210 -93 0 
-7 -211 -79 0 
-79 -212 -86 0 
-86 -213 -93 0 
-7 -214 -79 0 
-79 -215 -86 0 
-86 -216 -93 0 
-14 -217 -94 0 
-94 -218 -101 0 
-101 -219 -108 0 
-14 -220 -94 0 
-94 -221 -101 0 
-101 -222 -108 0 
-14 -223 -94 0 
-94 -224 -101 0 
-101 -225 -108 0 
-14 -226 -94 0 
-94 -227 -101 0 
-101 -228 -108 0 
-14 -229 -94 0 
-94 -230 -101 0 
-101 -231 -108 0 
-14 -232 -94 0 
-94 -233 -101 0 
-101 -234 -108 0 
-21 -235 -109 0 
-109 -236 -116 0 
-116 -237 -123 0 
-21 -238 -109 0 
-109 -239 -116 0 
-116 -240 -123 0 
-21 -241 -109 0 
-109 -242 -116 0 
-116 -243 -123 0 
-21 -244 -109 0 
-109 -245 -116 0 
-116 -246 -123 0 
-21 -247 -109 0 
-109 -248 -116 0 
-116 -249 -123 0 
-21 -250 -109 0 
-109 -251 -116 0 
-116 -252 -123 0 
-28 -253 -124 0 
-124 -254 -131 0 
-131 -255 -138 0 
-28 -256 -124 0 
-124 -257 -131 0 
-131 -258 -138 0 
-28 -259 -124 0 
-124 -260 -131 0 
-131 -261 -138 0 
-28 -262 -124 0 
-124 -263 -131 0 
-131 -264 -138 0 
-28 -265 -124 0 
-124 -266 -131 0 
-131 -267 -138 0 
-28 -268 -124 0 
-124 -269 -131 0 
-131 -270 -138 0 
-35 -271 -139 0 
-139 -272 -146 0 
-146 -273 -153 0 
-35 -274 -139 0 
-139 -275 -146 0 
-146 -276 -153 0 
-35 -277 -139 0 
-139 -278 -146 0 
-146 -279 -153 0 
-35 -280 -139 0 
-139 -281 -146 0 
-146 -282 -153 0 
-35 -283 -139 0 
-139 -284 -146 0 
-146 -285 -153 0 
-35 -286 -139 0 
-139 -287 -146 0 
-146 -288 -153 0 
-42 -289 -154 0 
-154 -290 -161 0 
-161 -291 -168 0 
-42 -292 -154 0 
-154 -293 -161 0 
-161 -294 -168 0 
-42 -295 -154 0 
-154 -296 -161 0 
-161 -297 -168 0 
-42 -298 -154 0 
-154 -299 -161 0 
-161 -300 -168 0 
-42 -301 -154 0 
-154 -302 -161 0 
-161 -303 -168 0 
-42 -304 -154 0 
-154 -305 -161 0 
-161 -306 -168 0 
-49 -307 -169 0 
-169 -308 -171 0 
-171 -309 -173 0 
-51 -310 -174 0 
-174 -311 -176 0 
-176 -312 -178 0 
-53 -313 -179 0 
-179 -314 -181 0 
-181 -315 -183 0 
-55 -316 -184 0 
-184 -317 -186 0 
-186 -318 -188 0 
-57 -319 -189 0 
-189 -320 -191 0 
-191 -321 -193 0 
-59 -322 -194 0 
-194 -323 -196 0 
-196 -324 -198 0 
-1 61 0 
1 -61 0 
-61 62 0 
61 -62 0 
-62 63 0 
62 -63 0 
-2 64 0 
2 -64 0 
-64 65 0 
64 -65 0 
-65 66 0 
65 -66 0 
-3 67 0 
3 -67 0 
-67 68 0 
67 -68 0 
-68 69 0 
68 -69 0 
-4 70 0 
4 -70 0 
-70 71 0 
70 -71 0 
-71 72 0 
71 -72 0 
-5 73 0 
5 -73 0 
-73 74 0 
73 -74 0 
-74 75 0 
74 -75 0 
-6 76 0 
6 -76 0 
-76 77 0 
76 -77 0 
-77 78 0 
77 -78 0 
-7 -199 8 0 
-8 7 0 
-8 199 0 
-7 -202 9 0 
-9 7 0 
-9 202 0 
-7 -205 10 0 
-10 7 0 
-10 205 0 
-7 -208 11 0 
-11 7 0 
-11 208 0 
-7 -211 12 0 
-12 7 0 
-12 211 0 
-7 -214 13 0 
-13 7 0 
-13 214 0 
8 9 10 11 12 13 -7 79 0 
7 -79 0 
-79 -200 80 0 
-80 79 0 
-80 200 0 
-79 -203 81 0 
-81 79 0 
-81 203 0 
-79 -206 82 0 
-82 79 0 
-82 206 0 
-79 -209 83 0 
-83 79 0 
-83 209 0 
-79 -212 84 0 
-84 79 0 
-84 212 0 
-79 -215 85 0 
-85 79 0 
-85 215 0 
80 81 82 83 84 85 -79 86 0 
79 -86 0 
-86 -201 87 0 
-87 86 0 
-87 201 0 
-86 -204 88 0 
-88 86 0 
-88 204 0 
-86 -207 89 0 
-89 86 0 
-89 207 0 
-86 -210 90 0 
-90 86 0 
-90 210 0 
-86 -213 91 0 
-91 86 0 
-91 213 0 
-86 -216 92 0 
-92 86 0 
-92 216 0 
87 88 89 90 91 92 -86 93 0 
86 -93 0 
-14 -217 15 0 
-15 14 0 
-15 217 0 
-14 -220 16 0 
-16 14 0 
-16 220 0 
-14 -223 17 0 
-17 14 0 
-17 223 0 
-14 -226 18 0 
-18 14 0 
-18 226 0 
-14 -229 19 0 
-19 14 0 
-19 229 0 
-14 -232 20 0 
-20 14 0 
-20 232 0 
15 16 17 18 19 20 -14 94 0 
14 -94 0 
-94 -218 95 0 
-95 94 0 
-95 218 0 
-94 -221 96 0 
-96 94 0 
-96 221 0 
-94 -224 97 0 
-97 94 0 
-97 224 0 
-94 -227 98 0 
-98 94 0 
-98 227 0 
-94 -230 99 0 
-99 94 0 
-99 230 0 
-94 -233 100 0 
-100 94 0 
-100 233 0 
95 96 97 98 99 100 -94 101 0 
94 -101 0 
-101 -219 102 0 
-102 101 0 
-102 219 0 
-101 -222 103 0 
-103 101 0 
-103 222 0 
-101 -225 104 0 
-104 101 0 
-104 225 0 
-101 -228 105 0 
-105 101 0 
-105 228 0 
-101 -231 106 0 
-106 101 0 
-106 231 0 
-101 -234 107 0 
-107 101 0 
-107 234 0 
102 103 104 105 106 107 -101 108 0 
101 -108 0 
-21 -235 22 0 
-22 21 0 
-22 235 0 
-21 -238 23 0 
-23 21 0 
-23 238 0 
-21 -241 24 0 
-24 21 0 
-24 241 0 
-21 -244 25 0 
-25 21 0 
-25 244 0 
-21 -247 26 0 
-26 21 0 
-26 247 0 
-21 -250 27 0 
-27 21 0 
-27 250 0 
22 23 24 25 26 27 -21 109 0 
21 -109 0 
-109 -236 110 0 
-110 109 0 
-110 236 0 
-109 -239 111 0 
-111 109 0 
-111 239 0 
-109 -242 112 0 
-112 109 0 
-112 242 0 
-109 -245 113 0 
-113 109 0 
-113 245 0 
-109 -248 114 0 
-114 109 0 
-114 248 0 
-109 -251 115 0 
-115 109 0 
-115 251 0 
110 111 112 113 114 115 -109 116 0 
109 -116 0 
-116 -237 117 0 
-117 116 0 
-117 237 0 
-116 -240 118 0 
-118 116 0 
-118 240 0 
-116 -243 119 0 
-119 116 0 
-119 243 0 
-116 -246 120 0 
-120 116 0 
-120 246 0 
-116 -249 121 0 
-121 116 0 
-121 249 0 
-116 -252 122 0 
-122 116 0 
-122 252 0 
117 118 119 120 121 122 -116 123 0 
116 -123 0 
-28 -253 29 0 
-29 28 0 
-29 253 0 
-28 -256 30 0 
-30 28 0 
-30 256 0 
-28 -259 31 0 
-31 28 0 
-31 259 0 
-28 -262 32 0 
-32 28 0 
-32 262 0 
-28 -265 33 0 
-33 28 0 
-33 265 0 
-28 -268 34 0 
-34 28 0 
-34 268 0 
29 30 31 32 33 34 -28 124 0 
28 -124 0 
-124 -254 125 0 
-125 124 0 
-125 254 0 
-124 -257 126 0 
-126 124 0 
-126 257 0 
-124 -260 127 0 
-127 124 0 
-127 260 0 
-124 -263 128 0 
-128 124 0 
-128 263 0 
-124 -266 129 0 
-129 124 0 
-129 266 0 
-124 -269 130 0 
-130 124 0 
-130 269 0 
125 126 127 128 129 130 -124 131 0 
124 -131 0 
-131 -255 132 0 
-132 131 0 
-132 255 0 
-131 -258 133 0 
-133 131 0 
-133 258 0 
-131 -261 134 0 
-134 131 0 
-134 261 0 
-131 -264 135 0 
-135 131 0 
-135 264 0 
-131 -267 136 0 
-136 131 0 
-136 267 0 
-131 -270 137 0 
-137 131 0 
-137 270 0 
132 133 134 135 136 137 -131 138 0 
131 -138 0 
-35 -271 36 0 
-36 35 0 
-36 271 0 
-35 -274 37 0 
-37 35 0 
-37 274 0 
-35 -277 38 0 
-38 35 0 
-38 277 0 
-35 -280 39 0 
-39 35 0 
-39 280 0 
-35 -283 40 0 
-40 35 0 
-40 283 0 
-35 -286 41 0 
-41 35 0 
-41 286 0 
36 37 38 39 40 41 -35 139 0 
35 -139 0 
-139 -272 140 0 
-140 139 0 
-140 272 0 
-139 -275 141 0 
-141 139 0 
-141 275 0 
-139 -278 142 0 
-142 139 0 
-142 278 0 
-139 -281 143 0 
-143 139 0 
-143 281 0 
-139 -284 144 0 
-144 139 0 
-144 284 0 
-139 -287 145 0 
-145 139 0 
-145 287 0 
140 141 142 143 144 145 -139 146 0 
139 -146 0 
-146 -273 147 0 
-147 146 0 
-147 273 0 
-146 -276 148 0 
-148 146 0 
-148 276 0 
-146 -279 149 0 
-149 146 0 
-149 279 0 
-146 -282 150 0 
-150 146 0 
-150 282 0 
-146 -285 151 0 
-151 146 0 
-151 285 0 
-146 -288 152 0 
-152 146 0 
-152 288 0 
147 148 149 150 151 152 -146 153 0 
146 -153 0 
-42 -289 43 0 
-43 42 0 
-43 289 0 
-42 -292 44 0 
-44 42 0 
-44 292 0 
-42 -295 45 0 
-45 42 0 
-45 295 0 
-42 -298 46 0 
-46 42 0 
-46 298 0 
-42 -301 47 0 
-47 42 0 
-47 301 0 
-42 -304 48 0 
-48 42 0 
-48 304 0 
43 44 45 46 47 48 -42 154 0 
42 -154 0 
-154 -290 155 0 
-155 154 0 
-155 290 0 
-154 -293 156 0 
-156 154 0 
-156 293 0 
-154 -296 157 0 
-157 154 0 
-157 296 0 
-154 -299 158 0 
-158 154 0 
-158 299 0 
-154 -302 159 0 
-159 154 0 
-159 302 0 
-154 -305 160 0 
-160 154 0 
-160 305 0 
155 156 157 158 159 160 -154 161 0 
154 -161 0 
-161 -291 162 0 
-162 161 0 
-162 291 0 
-161 -294 163 0 
-163 161 0 
-163 294 0 
-161 -297 164 0 
-164 161 0 
-164 297 0 
-161 -300 165 0 
-165 161 0 
-165 300 0 
-161 -303 166 0 
-166 161 0 
-166 303 0 
-161 -306 167 0 
-167 161 0 
-167 306 0 
162 163 164 165 166 167 -161 168 0 
161 -168 0 
-49 -307 50 0 
-50 49 0 
-50 307 0 
50 -49 169 0 
49 -169 0 
-169 -308 170 0 
-170 169 0 
-170 308 0 
170 -169 171 0 
169 -171 0 
-171 -309 172 0 
-172 171 0 
-172 309 0 
172 -171 173 0 
171 -173 0 
-51 -310 52 0 
-52 51 0 
-52 310 0 
52 -51 174 0 
51 -174 0 
-174 -311 175 0 
-175 174 0 
-175 311 0 
175 -174 176 0 
174 -176 0 
-176 -312 177 0 
-177 176 0 
-177 312 0 
177 -176 178 0 
176 -178 0 
-53 -313 54 0 
-54 53 0 
-54 313 0 
54 -53 179 0 
53 -179 0 
-179 -314 180 0 
-180 179 0 
-180 314 0 
180 -179 181 0 
179 -181 0 
-181 -315 182 0 
-182 181 0 
-182 315 0 
182 -181 183 0 
181 -183 0 
-55 -316 56 0 
-56 55 0 
-56 316 0 
56 -55 184 0 
55 -184 0 
-184 -317 185 0 
-185 184 0 
-185 317 0 
185 -184 186 0 
184 -186 0 
-186 -318 187 0 
-187 186 0 
-187 318 0 
187 -186 188 0 
186 -188 0 
-57 -319 58 0 
-58 57 0 
-58 319 0 
58 -57 189 0 
57 -189 0 
-189 -320 190 0 
-190 189 0 
-190 320 0 
190 -189 191 0 
189 -191 0 
-191 -321 192 0 
-192 191 0 
-192 321 0 
192 -191 193 0 
191 -193 0 
-59 -322 60 0 
-60 59 0 
-60 322 0 
60 -59 194 0 
59 -194 0 
-194 -323 195 0 
-195 194 0 
-195 323 0 
195 -194 196 0 
194 -196 0 
-196 -324 197 0 
-197 196 0 
-197 324 0 
197 -196 198 0 
196 -198 0 
